====================================================================================================================
File name: 100_10_48_15.def
Creation date: Mon Nov 24 20:40:29 CET 2014
Website: http://imopse.ii.pwr.edu.pl/
Reference:
Myszkowski P. B., Skowronski M. E., Olech L., Oslizlo K.,
Hybrid Ant Colony Optimization in solving Multi-Skill Resource-Constrained Project Scheduling Problem,
Soft Computing, DOI: DOI 10.1007/s00500-014-1455-x
====================================================================================================================
General characteristics:
Tasks: 100
Resources: 10
Precedence relations: 48
Number of skill types: 15
====================================================================================================================
ResourceID 	 Salary 	 Skills
1	 	 	41.1	 	 Q7: 1 	  Q2: 0 	  Q0: 0 	  Q12: 0 	  Q11: 1 	  Q4: 1
2	 	 	55.6	 	 Q10: 0 	  Q0: 1 	  Q9: 1 	  Q1: 2 	  Q7: 2 	  Q12: 2
3	 	 	18.8	 	 Q11: 0 	  Q6: 0 	  Q8: 2 	  Q1: 1 	  Q10: 2 	  Q9: 0
4	 	 	40.6	 	 Q3: 0 	  Q10: 2 	  Q5: 1 	  Q4: 1 	  Q13: 2 	  Q0: 2
5	 	 	40.8	 	 Q14: 1 	  Q0: 0 	  Q1: 0 	  Q5: 0 	  Q7: 2 	  Q2: 2
6	 	 	98.9	 	 Q13: 1 	  Q2: 1 	  Q7: 1 	  Q9: 1 	  Q10: 0 	  Q14: 0
7	 	 	41.3	 	 Q3: 2 	  Q12: 2 	  Q13: 2 	  Q14: 1 	  Q2: 1 	  Q4: 2
8	 	 	69.5	 	 Q13: 0 	  Q9: 2 	  Q7: 2 	  Q0: 2 	  Q11: 0 	  Q14: 1
9	 	 	69.4	 	 Q12: 2 	  Q1: 2 	  Q0: 0 	  Q8: 1 	  Q14: 1 	  Q13: 2
10	 	 	95.9	 	 Q0: 0 	  Q1: 0 	  Q8: 1 	  Q4: 1 	  Q11: 1 	  Q9: 2
====================================================================================================================
TaskID 	 Duration 	 Skill 	 Predecessor IDs
1	 	 	28	 Q11: 1
2	 	 	21	 Q7: 1
3	 	 	29	 Q11: 1
4	 	 	15	 Q4: 1
5	 	 	28	 Q0: 1
6	 	 	9	 Q13: 0
7	 	 	19	 Q8: 2
8	 	 	12	 Q11: 0
9	 	 	36	 Q10: 0
10	 	 	22	 Q13: 1
11	 	 	9	 Q13: 2
12	 	 	32	 Q9: 2
13	 	 	25	 Q5: 0
14	 	 	24	 Q6: 0
15	 	 	38	 Q11: 0
16	 	 	30	 Q14: 0
17	 	 	33	 Q0: 0
18	 	 	34	 Q0: 2
19	 	 	25	 Q8: 1	 	8
20	 	 	36	 Q12: 0
21	 	 	13	 Q3: 0
22	 	 	14	 Q14: 0	 	15
23	 	 	28	 Q12: 0
24	 	 	9	 Q3: 2
25	 	 	15	 Q0: 0
26	 	 	30	 Q3: 0
27	 	 	39	 Q6: 0
28	 	 	15	 Q14: 0	 	18
29	 	 	13	 Q9: 0
30	 	 	31	 Q9: 2
31	 	 	9	 Q2: 0	 	18
32	 	 	28	 Q11: 0
33	 	 	16	 Q7: 2	 	17	11
34	 	 	26	 Q2: 1
35	 	 	16	 Q8: 2
36	 	 	10	 Q0: 0
37	 	 	34	 Q12: 2
38	 	 	13	 Q12: 0
39	 	 	26	 Q8: 2	 	21
40	 	 	40	 Q13: 1	 	18
41	 	 	28	 Q10: 0
42	 	 	31	 Q0: 1
43	 	 	32	 Q14: 0	 	8
44	 	 	21	 Q4: 2	 	4
45	 	 	28	 Q9: 1
46	 	 	11	 Q14: 0
47	 	 	38	 Q1: 0
48	 	 	30	 Q4: 2	 	26
49	 	 	24	 Q9: 2
50	 	 	13	 Q12: 2
51	 	 	12	 Q5: 1	 	1	40
52	 	 	34	 Q13: 0
53	 	 	36	 Q9: 2	 	7
54	 	 	13	 Q2: 2	 	20
55	 	 	34	 Q7: 2	 	8
56	 	 	15	 Q7: 1
57	 	 	38	 Q2: 0	 	37	33
58	 	 	40	 Q5: 1
59	 	 	31	 Q3: 0
60	 	 	33	 Q1: 0
61	 	 	12	 Q12: 2
62	 	 	35	 Q14: 1	 	42
63	 	 	21	 Q8: 1
64	 	 	22	 Q4: 1
65	 	 	39	 Q8: 1
66	 	 	23	 Q8: 1
67	 	 	32	 Q11: 1	 	33
68	 	 	26	 Q10: 0	 	44
69	 	 	34	 Q13: 1
70	 	 	10	 Q9: 0	 	42
71	 	 	31	 Q14: 1	 	47
72	 	 	33	 Q2: 0	 	13
73	 	 	16	 Q11: 1	 	21	23
74	 	 	12	 Q10: 2
75	 	 	14	 Q12: 0	 	64	52	14
76	 	 	19	 Q1: 1	 	39
77	 	 	23	 Q11: 0	 	58	48	11
78	 	 	37	 Q7: 2	 	33
79	 	 	15	 Q0: 2	 	54	75
80	 	 	37	 Q2: 1	 	26	44
81	 	 	12	 Q4: 2
82	 	 	17	 Q9: 0
83	 	 	23	 Q6: 0
84	 	 	12	 Q3: 2
85	 	 	19	 Q7: 2	 	44
86	 	 	20	 Q14: 1	 	27
87	 	 	12	 Q1: 2	 	50
88	 	 	28	 Q1: 2	 	86	80	24
89	 	 	36	 Q13: 1	 	85	12
90	 	 	34	 Q12: 2
91	 	 	22	 Q12: 2
92	 	 	30	 Q5: 1	 	30
93	 	 	20	 Q11: 0
94	 	 	15	 Q11: 1
95	 	 	18	 Q8: 1
96	 	 	27	 Q5: 1	 	83
97	 	 	26	 Q10: 0
98	 	 	33	 Q0: 0
99	 	 	11	 Q14: 0
100	 	 	38	 Q13: 0
====================================================================================================================
